c --- [ banner ] -------------------------------------------------------------
c 
c CaDiCaL Radically Simplified CDCL SAT Solver
c Copyright (c) 2016-2021 A. Biere, M. Fleury, N. Froleyks
c 
c Version 1.5.2 ca9bff05c11bde5eae4912f9932871d1527e61d8
c g++ (GCC) 9.3.0 -Wall -Wextra -O3 -DNDEBUG
c Sun May 1 02:23:23 EDT 2022 Linux gra-login1 3.10.0-1160.59.1.el7.x86_64 x86_64
c 
c --- [ limit ] --------------------------------------------------------------
c 
c setting conflict limit to 200000 conflicts (due to '200000')
c 
c --- [ parsing input ] ------------------------------------------------------
c 
c reading DIMACS file from '26.cubes626.adj'
c opening file to read '26.cubes626.adj'
c found 'p cnf 5320 924210' header
c parsed 924210 clauses in 7.95 seconds process time
c closing file '26.cubes626.adj'
c after reading 686668115 bytes 654.9 MB
c 
c --- [ options ] ------------------------------------------------------------
c 
c all options are set to their default value
c 
c --- [ solving ] ------------------------------------------------------------
c 
c time measured in process time since initialization
c 
c  seconds   reductions  redundant  irredundant
c          MB    restarts       trail      variables
c           level   conflicts       glue        remaining
c 
c *  7.95 687  0 0   0    0    0  0% 0 923580 4163 78%
c {  8.44 709  0 0   0    0    0  0% 0 923580 4163 78%
c i  8.73 715 188 0   0   80   71 41% 20 923580 4130 78%
c i  9.06 722 150 0   1  175  148 42% 20 923580 4092 77%
c - 10.83 706 92 1   1  302  191 39% 14 141898 4092 77%
c i 10.86 706 89 1   1  313  196 38% 14 141898 4060 76%
c i 10.86 706 89 1   1  314  196 38% 14 141898 3996 75%
c i 10.87 706 56 1   1  508  213 36% 10 141898 3987 75%
c i 10.87 706 56 1   1  514  215 35% 10 141898 3962 74%
c } 10.87 706 55 1   1  516  215 35% 10 141898 3831 72%
c 0 10.87 706 55 1   1  516  215 35% 10 141898 3831 72%
c 
c --- [ writing output ] -----------------------------------------------------
c 
c writing simplified CNF to DIMACS file 'simp/26.cubes626.adj.simp1'
c * 10.87 706 55 1   1  516  215 35% 10 141898 3831 72%
c opening file to write 'simp/26.cubes626.adj.simp1'
c writing 'p cnf 5320 1' header
c closing file 'simp/26.cubes626.adj.simp1'
c after writing 15 bytes 0.0 MB
c wrote 1 clauses in 0.00 seconds process time
c 
c --- [ writing extension ] --------------------------------------------------
c 
c writing extension stack to 'simp/26.cubes626.adj.ext1'
c opening file to write 'simp/26.cubes626.adj.ext1'
c closing file 'simp/26.cubes626.adj.ext1'
c after writing 0 bytes 0.0 MB
c wrote 0 witnesses in 0.00 seconds process time
c 
c --- [ result ] -------------------------------------------------------------
c 
s UNSATISFIABLE
c 
c --- [ run-time profiling ] -------------------------------------------------
c 
c process time taken by individual solving procedures
c (percentage relative to process time for solving)
c 
c         7.95  272.46% parse
c         2.92  100.00% search
c         2.42   83.13% unstable
c         0.49   16.86% lucky
c         0.00    0.00% simplify
c   =================================
c         2.92   26.84% solve
c 
c last line shows process time for solving
c (percentage relative to total process time)
c 
c --- [ statistics ] ---------------------------------------------------------
c 
c chronological:                91        17.64 %  of conflicts
c conflicts:                   516       176.89    per second
c decisions:                   848       290.70    per second
c fixed:                      1489        27.99 %  of all variables
c learned:                     509        98.64 %  per conflict
c learned_lits:              11436       100.00 %  learned literals
c minimized:                     0         0.00 %  learned literals
c shrunken:                   3787        33.11 %  learned literals
c minishrunken:               1067         9.33 %  learned literals
c propagations:              52889         0.02 M  per second
c restarts:                      1       516.00    interval
c subsumed:                    271         0.01 %  of all clauses
c 
c seconds are measured in process time for solving
c 
c --- [ resources ] ----------------------------------------------------------
c 
c total process time since initialization:        10.87    seconds
c total real time since initialization:           10.92    seconds
c maximum resident set size of process:          725.04    MB
c 
c --- [ shutting down ] ------------------------------------------------------
c 
c exit 20
c --- [ banner ] -------------------------------------------------------------
c 
c CaDiCaL Radically Simplified CDCL SAT Solver
c Copyright (c) 2016-2021 A. Biere, M. Fleury, N. Froleyks
c 
c Version 1.5.2 ca9bff05c11bde5eae4912f9932871d1527e61d8
c g++ (GCC) 9.3.0 -Wall -Wextra -O3 -DNDEBUG
c Sun May 1 02:23:23 EDT 2022 Linux gra-login1 3.10.0-1160.59.1.el7.x86_64 x86_64
c 
c --- [ limit ] --------------------------------------------------------------
c 
c setting conflict limit to 200000 conflicts (due to '200000')
c 
c --- [ parsing input ] ------------------------------------------------------
c 
c reading DIMACS file from 'simp/26.cubes626.adj.simp1'
c opening file to read 'simp/26.cubes626.adj.simp1'
c found 'p cnf 5320 1' header
c parsed 1 clauses in 0.00 seconds process time
c closing file 'simp/26.cubes626.adj.simp1'
c after reading 15 bytes 0.0 MB
c 
c --- [ options ] ------------------------------------------------------------
c 
c all options are set to their default value
c 
c --- [ solving ] ------------------------------------------------------------
c 
c time measured in process time since initialization
c 
c  seconds  reductions  redundant irredundant
c         MB    restarts       trail    variables
c          level   conflicts       glue     remaining
c 
c 0  0.00  2  0 0   0    0    0  0% 0    0   0  0%
c 
c --- [ writing output ] -----------------------------------------------------
c 
c writing simplified CNF to DIMACS file 'simp/26.cubes626.adj.simp2'
c *  0.00  3  0 0   0    0    0  0% 0    0   0  0%
c opening file to write 'simp/26.cubes626.adj.simp2'
c writing 'p cnf 5320 1' header
c closing file 'simp/26.cubes626.adj.simp2'
c after writing 15 bytes 0.0 MB
c wrote 1 clauses in 0.00 seconds process time
c 
c --- [ writing extension ] --------------------------------------------------
c 
c writing extension stack to 'simp/26.cubes626.adj.ext2'
c opening file to write 'simp/26.cubes626.adj.ext2'
c closing file 'simp/26.cubes626.adj.ext2'
c after writing 0 bytes 0.0 MB
c wrote 0 witnesses in 0.00 seconds process time
c 
c --- [ result ] -------------------------------------------------------------
c 
s UNSATISFIABLE
c 
c --- [ run-time profiling ] -------------------------------------------------
c 
c process time taken by individual solving procedures
c (percentage relative to process time for solving)
c 
c         0.00  976.06% parse
c         0.00    0.00% search
c         0.00    0.00% simplify
c   =================================
c         0.00    4.19% solve
c 
c last line shows process time for solving
c (percentage relative to total process time)
c 
c --- [ statistics ] ---------------------------------------------------------
c 
c minimized:                     0         0.00 %  learned literals
c shrunken:                      0         0.00 %  learned literals
c minishrunken:                  0         0.00 %  learned literals
c propagations:                  0         0.00 M  per second
c 
c seconds are measured in process time for solving
c 
c --- [ resources ] ----------------------------------------------------------
c 
c total process time since initialization:         0.00    seconds
c total real time since initialization:            0.01    seconds
c maximum resident set size of process:            2.66    MB
c 
c --- [ shutting down ] ------------------------------------------------------
c 
c exit 20
WARNING! DIMACS header mismatch: wrong number of variables.
============================[ Problem Statistics ]=============================
|                                                                             |
|  Number of variables:             0                                         |
|  Number of clauses:               0                                         |
|  Parse time:                   0.00 s                                       |
|  Simplification time:          0.00 s                                       |
|                                                                             |
===============================================================================
Solved by simplification
database reductions   : 0
restarts              : 0
conflicts             : 0              (0 /sec)
decisions             : 0              (-nan % random) (0 /sec)
propagations          : 0              (0 /sec)
conflict literals     : 0              (-nan % deleted)
actual reward         : -nan
Memory used           : 5.00 MB
CPU time              : 0.001134 s

UNSATISFIABLE
